
--- Job bchfcnet.gms Start 02/08/22 12:28:18 34.3.0 rac355f3 WEX-WEI x86 64bit/MS Windows
--- Applying:
    C:\GAMS\34\gmsprmNT.txt
--- GAMS Parameters defined
    Input C:\Users\dekhi\Desktop\gamsworld\FCNetLib\test\bchfcnet.gms
    PageSize 0
    ScrDir C:\Users\dekhi\Desktop\gamsworld\FCNetLib\test\225a\
    SysDir C:\GAMS\34\
    LogOption 3
    ErrMsg 1
    ErrorLog 99
    IDE 1
    ResLim 3600
    LstTitleLeftAligned 1
Licensee: Eval License                                   S211214|0002AW-GEN
          Ostfalia Hochschule fuer angewandte Wissenschaften        DCE1645
          C:\Users\dekhi\Documents\GAMS\gamslice.txt
          License Admin: Mohamed Ali Dekhil, dekhil.medali@gmail.com       
          Evaluation license: Not for commercial or production use
GAMS 34.3.0   Copyright (C) 1987-2021 GAMS Development. All rights reserved
--- Starting compilation
--- bchfcnet.gms(34) 2 Mb
--- . decl.gms(15) 2 Mb
--- bchfcnet.gms(38) 2 Mb
--- . g200x740c.inc(1536) 3 Mb
--- bchfcnet.gms(67) 3 Mb
--- . equs.gms(20) 3 Mb
--- bchfcnet.gms(97) 3 Mb
--- call rm -f bchout_i.gdx startcut.txt startheur.txt cuthist.gdx agap.txt rgap.txt cntfail.txt
--- bchfcnet.gms(118) 3 Mb
--- Starting execution: elapsed 0:00:00.073
--- bchfcnet.gms(1594) 4 Mb
--- GDX File (execute_unload) C:\Users\dekhi\Desktop\gamsworld\FCNetLib\test\net.gdx
--- bchfcnet.gms(1685) 4 Mb
--- GDXin=C:\Users\dekhi\Desktop\gamsworld\FCNetLib\test\points\g200x740c.gdx
--- GDX File (execute_load) C:\Users\dekhi\Desktop\gamsworld\FCNetLib\test\points\g200x740c.gdx
--- Generating MIP model master
--- bchfcnet.gms(1689) 5 Mb
---   941 rows  1,481 columns  4,441 non-zeroes
---   740 discrete-columns
--- Executing CPLEX (Solvelink=2): elapsed 0:00:00.117

IBM ILOG CPLEX   34.3.0 rac355f3 Released Feb 25, 2021 WEI x86 64bit/MS Window

--- GAMS/Cplex Link licensed for continuous and discrete problems.

Reading parameter(s) from "C:\Users\dekhi\Desktop\gamsworld\FCNetLib\test\cplex.op2"
>>  mipstart 1
Finished reading from "C:\Users\dekhi\Desktop\gamsworld\FCNetLib\test\cplex.op2"

--- Space for names approximately 0.05 Mb
--- Use option 'names no' to turn use of names off
--- GMO memory 0.78 Mb (peak 0.79 Mb)
--- Dictionary memory 0.00 Mb
--- Cplex 20.1.0.0 link memory 0.04 Mb (peak 0.16 Mb)
--- Starting Cplex

Version identifier: 20.1.0.0 | 2020-11-10 | 9bedb6d68
CPXPARAM_Threads                                 1
CPXPARAM_MIP_Display                             4
CPXPARAM_TimeLimit                               3600
CPXPARAM_MIP_Tolerances_AbsMIPGap                0
CPXPARAM_MIP_Tolerances_MIPGap                   0
Generic callback                                 0x50
Processing 1 MIP starts.
MIP start 'm1' defined solution with objective 680124.0000.
1 of 1 MIP starts provided solutions.
MIP start 'm1' defined initial solution with objective 680124.0000.
Tried aggregator 2 times.
MIP Presolve eliminated 200 rows and 3 columns.
MIP Presolve added 397 rows and 0 columns.
Aggregator did 1 substitutions.
Reduced MIP has 1136 rows, 1477 columns, and 3351 nonzeros.
Reduced MIP has 739 binaries, 0 generals, 0 SOSs, and 0 indicators.
Presolve time = 0.02 sec. (7.62 ticks)
Probing time = 0.00 sec. (0.20 ticks)
Tried aggregator 1 time.
Detecting symmetries...
Reduced MIP has 1136 rows, 1477 columns, and 3351 nonzeros.
Reduced MIP has 739 binaries, 0 generals, 0 SOSs, and 0 indicators.
Presolve time = 0.00 sec. (5.88 ticks)
Probing time = 0.00 sec. (0.20 ticks)
Clique table members: 1.
MIP emphasis: balance optimality and feasibility.
MIP search method: dynamic search.
Parallel mode: none, using 1 thread.
Tried aggregator 1 time.
LP Presolve eliminated 540 rows and 541 columns.
Aggregator did 199 substitutions.
Reduced LP has 397 rows, 737 columns, and 1870 nonzeros.
Presolve time = 0.00 sec. (0.86 ticks)

Iteration log . . .
Iteration:     1   Dual objective     =         90384.000000
Iteration:    62   Dual objective     =        403059.244400
Iteration:   124   Dual objective     =        545928.749500
Iteration:   188   Dual objective     =        646788.605800
Initializing dual steep norms . . .
Root relaxation solution time = 0.00 sec. (3.71 ticks)

        Nodes                                         Cuts/
   Node  Left     Objective  IInf  Best Integer    Best Bound    ItCnt     Gap

*     0+    0                       680124.0000    90000.0000            86.77%
Found incumbent of value 680124.000000 after 0.02 sec. (19.59 ticks)
      0     0   655765.8950   119   680124.0000   655765.8950      208    3.58%
      0     0   675032.5901    88   680124.0000     Cuts: 234      357    0.75%
      0     0   677485.2495    66   680124.0000     Cuts: 196      421    0.39%
      0     0   678397.9536    82   680124.0000      Cuts: 99      464    0.25%
      0     0   678747.6066    96   680124.0000      Cuts: 84      508    0.20%
      0     0   678930.8327    83   680124.0000     Cuts: 110      568    0.18%
Detecting symmetries...
      0     0   679073.0037    41   680124.0000      Cuts: 82      606    0.15%
      0     0   679130.4817    69   680124.0000      Cuts: 29      636    0.15%
      0     0   679180.7604    47   680124.0000      Cuts: 50      661    0.14%
      0     0   679253.7774    64   680124.0000      Cuts: 49      694    0.13%
      0     0   679359.9869    69   680124.0000      Cuts: 55      745    0.11%
      0     0   679391.5378    83   680124.0000      Cuts: 72      796    0.11%
      0     0   679458.2387    54   680124.0000      Cuts: 64      839    0.10%
      0     0   679492.2134    90   680124.0000      Cuts: 41      900    0.09%
Detecting symmetries...
      0     2   679492.2134    90   680124.0000   679492.2252      900    0.09%
Elapsed time = 0.30 sec. (281.18 ticks, tree = 0.01 MB, solutions = 3)
*    40     6      integral     0   680124.0000   679880.6401     1400    0.04%
                                                      Cuts: 8                  
Found incumbent of value 680124.000000 after 0.34 sec. (346.84 ticks)

Cover cuts applied:  19
Implied bound cuts applied:  11
Flow cuts applied:  143
Mixed integer rounding cuts applied:  57
Flow path cuts applied:  38
Multi commodity flow cuts applied:  3
Lift and project cuts applied:  5
Gomory fractional cuts applied:  86

Root node processing (before b&c):
  Real time             =    0.30 sec. (281.18 ticks)
Sequential b&c:
  Real time             =    0.06 sec. (76.52 ticks)
                          ------------
Total (root+branch&cut) =    0.36 sec. (357.71 ticks)

--- MIP status (101): integer optimal solution.
--- Cplex Time: 0.36sec (det. 357.71 ticks)

--- Fixing integer variables and solving final LP...

Version identifier: 20.1.0.0 | 2020-11-10 | 9bedb6d68
CPXPARAM_Advance                                 2
CPXPARAM_Threads                                 1
CPXPARAM_MIP_Display                             4
CPXPARAM_TimeLimit                               3600
CPXPARAM_MIP_Tolerances_AbsMIPGap                0
CPXPARAM_MIP_Tolerances_MIPGap                   0
Tried aggregator 1 time.
LP Presolve eliminated 940 rows and 1481 columns.
All rows and columns eliminated.
Presolve time = 0.00 sec. (0.55 ticks)

--- Fixed MIP status (1): optimal.
--- Cplex Time: 0.00sec (det. 0.95 ticks)


Proven optimal solution
MIP Solution:       680124.000000    (1489 iterations, 51 nodes)
Final Solve:        680124.000000    (0 iterations)

Best possible:      680124.000000
Absolute gap:            0.000000
Relative gap:            0.000000

--- Reading solution for model master
*** Status: Normal completion
--- Job bchfcnet.gms Stop 02/08/22 12:28:18 elapsed 0:00:00.527
